problems/csplib-prob015/SchursLemma-models/noch/O2/lingeling/model_1_3-6-9-solution000001.eprime-solution
language ESSENCE' 1.0

letting boxes_PartitionAsSet_ExplicitR5_ExplicitVarSizeWithMarker_Marker be [1, 1, 1, 1, 2, 3; int(1..6)]
letting boxes_PartitionAsSet_ExplicitR5_ExplicitVarSizeWithMarker_Values be
        [[6, 1, 1, 1, 1, 1, 1, 1, 1; int(1..9)], [7, 1, 1, 1, 1, 1, 1, 1, 1; int(1..9)],
         [8, 1, 1, 1, 1, 1, 1, 1, 1; int(1..9)], [9, 1, 1, 1, 1, 1, 1, 1, 1; int(1..9)],
         [1, 5, 1, 1, 1, 1, 1, 1, 1; int(1..9)], [2, 3, 4, 1, 1, 1, 1, 1, 1; int(1..9)]; int(1..6)]
