problems/csplib-prob015/SchursLemma-models/noch/O2/lingeling/model_1_3-6-9-solution000001.solution
language Essence 1.3

letting boxes be partition({1, 5}, {2, 3, 4}, {6}, {7}, {8}, {9})
